c description: Random 3-CNF over 15 variables and 80 clauses
c generator: CNFgen (0.9.0)
c copyright: (C) 2012-2020 Massimo Lauria <massimo.lauria@uniroma1.it>
c url: https://massimolauria.net/cnfgen
c
p cnf 15 80
4 -12 15 0
1 3 12 0
5 10 12 0
-2 5 15 0
7 -8 -13 0
-6 7 10 0
-4 9 13 0
-1 -6 -8 0
1 2 5 0
-5 6 10 0
-1 -4 10 0
-2 8 12 0
1 -2 -14 0
-5 6 -7 0
3 -4 15 0
-1 -2 15 0
-6 7 15 0
-1 -10 -13 0
7 -8 13 0
2 -4 -10 0
3 -9 -14 0
6 -10 -13 0
-2 9 -14 0
1 -10 12 0
-4 11 14 0
-7 -11 -15 0
6 7 -14 0
3 -5 -8 0
-6 8 11 0
6 10 12 0
-7 11 15 0
-3 -6 13 0
-4 -8 -13 0
-9 -10 -15 0
2 10 12 0
6 9 -15 0
-6 12 15 0
-4 11 -14 0
-1 -4 15 0
7 -9 11 0
3 11 15 0
-9 -14 -15 0
-4 -5 -13 0
-3 -5 -8 0
5 -8 15 0
4 7 10 0
2 -4 -9 0
1 -7 8 0
6 10 13 0
-2 7 -9 0
8 10 -15 0
-1 5 9 0
4 -7 -14 0
5 9 15 0
2 -7 -13 0
5 8 -15 0
2 3 11 0
1 3 13 0
-1 12 13 0
-5 9 -11 0
2 4 -12 0
2 -10 13 0
-4 -8 -12 0
4 8 -13 0
-1 -5 -10 0
-7 12 13 0
-2 12 14 0
-8 -11 15 0
-1 -8 14 0
-1 -9 -12 0
3 -12 -13 0
8 -11 -12 0
1 6 8 0
-2 -10 12 0
8 -9 -13 0
-7 8 14 0
10 -12 13 0
-2 6 -13 0
8 14 15 0
-8 -10 12 0